7
0, 905, 417, 210, 300, 983, 208
905, 0, 612, 756, 780, 80, 702
417, 612, 0, 208, 176, 692, 308
210, 756, 208, 0, 114, 836, 178
300, 780, 176, 114, 0, 861, 290
983, 80, 692, 836, 861, 0, 778
208, 702, 308, 178, 290, 778, 0
